instances/knapsack/discrete/knapsack_110_7.lp
\ Model knapsack_110_7
\ LP format - for model browsing. Use MPS format to capture full model detail.
\ Signature: 0x1c7a262dccd0e095
Minimize
  - 90 x[0] - 70 x[1] - 4 x[2] - 40 x[3] - 13 x[4] - 49 x[5] - 5 x[6]
   - 31 x[7] - 46 x[8] - 78 x[9] - 99 x[10] - 19 x[11] - 63 x[12]
   - 90 x[13] - 59 x[14] - 8 x[15] - 62 x[16] - 42 x[17] - 50 x[18]
   - 85 x[19] - 57 x[20] - 15 x[21] - 92 x[22] - 80 x[23] - 65 x[24]
   - 90 x[25] - 28 x[26] - 67 x[27] - 54 x[28] - 60 x[29] - 89 x[30]
   - 36 x[31] - 64 x[32] - 91 x[33] - 27 x[34] - 5 x[35] - 49 x[36]
   - 71 x[37] - 26 x[38] - 75 x[39] - 44 x[40] - 9 x[41] - 61 x[42]
   - 27 x[43] - 62 x[44] - 51 x[45] - 60 x[46] - 40 x[47] - 60 x[48]
   - 29 x[49] - 47 x[50] - 86 x[51] - 99 x[52] - 61 x[53] - 24 x[54]
   - 14 x[55] - 6 x[56] - 12 x[57] - 20 x[58] - 79 x[59] - 40 x[60]
   - 14 x[61] - 49 x[62] - 33 x[63] - 42 x[64] - 5 x[65] - 53 x[66]
   - 49 x[67] - 28 x[68] - 93 x[69] - x[70] - 55 x[71] - 13 x[72] - 5 x[73]
   - 26 x[74] - 18 x[75] - 30 x[76] - 77 x[77] - 48 x[78] - 83 x[79]
   - 31 x[80] - 10 x[81] - 29 x[82] - 34 x[83] - 89 x[84] - 36 x[85]
   - 26 x[86] - 3 x[87] - 28 x[88] - 90 x[89] - 98 x[90] - 65 x[91]
   - 77 x[92] - 32 x[93] - 28 x[94] - 98 x[95] - 57 x[96] - 92 x[97]
   - 4 x[98] - 32 x[99] - 56 x[100] - 93 x[101] - 82 x[102] - 41 x[103]
   - 43 x[104] - 55 x[105] - 26 x[106] - 76 x[107] - 42 x[108] - 12 x[109]
Subject To
 primal_upper: 57 x[0] + 78 x[1] + 96 x[2] + 13 x[3] + 2 x[4] + 87 x[5]
   + 3 x[6] + 69 x[7] + 47 x[8] + 40 x[9] + 29 x[10] + 13 x[11] + 58 x[12]
   + 42 x[13] + 30 x[14] + 34 x[15] + 7 x[16] + 2 x[17] + 11 x[18]
   + 64 x[19] + 83 x[20] + 69 x[21] + 2 x[22] + 64 x[23] + 10 x[24]
   + 22 x[25] + 44 x[26] + 41 x[27] + 71 x[28] + 9 x[29] + 71 x[30]
   + 13 x[31] + 33 x[32] + 83 x[33] + 30 x[34] + 35 x[35] + 70 x[36]
   + 50 x[37] + 26 x[38] + 8 x[39] + 45 x[40] + 83 x[41] + 96 x[42]
   + 99 x[43] + x[44] + 76 x[45] + 91 x[46] + 71 x[47] + x[48] + 34 x[49]
   + 4 x[50] + 94 x[51] + 71 x[52] + 62 x[53] + 46 x[54] + 57 x[55]
   + 39 x[56] + 56 x[57] + 30 x[58] + 28 x[59] + 26 x[60] + 12 x[61]
   + 69 x[62] + 92 x[63] + 89 x[64] + 98 x[65] + 14 x[66] + 36 x[67]
   + 94 x[68] + 35 x[69] + 51 x[70] + 51 x[71] + 44 x[72] + 85 x[73]
   + 65 x[74] + 14 x[75] + 48 x[76] + 85 x[77] + 90 x[78] + 48 x[79]
   + 71 x[80] + 55 x[81] + 28 x[82] + 59 x[83] + 75 x[84] + 71 x[85]
   + 85 x[86] + 46 x[87] + 48 x[88] + 49 x[89] + 78 x[90] + 58 x[91]
   + 46 x[92] + 25 x[93] + 54 x[94] + 47 x[95] + 55 x[96] + 66 x[97]
   + 54 x[98] + 66 x[99] + 79 x[100] + 70 x[101] + 44 x[102] + 30 x[103]
   + 75 x[104] + 52 x[105] + 81 x[106] + 8 x[107] + 60 x[108] + 79 x[109]
   + 5.7 r[0] + 7.8 r[1] + 9.6 r[2] + 1.3 r[3] + 0.2 r[4] + 8.7 r[5]
   + 0.3 r[6] + 6.9 r[7] + 4.7 r[8] + 4 r[9] + 2.9 r[10] + 1.3 r[11]
   + 5.8 r[12] + 4.2 r[13] + 3 r[14] + 3.4 r[15] + 0.7 r[16] + 0.2 r[17]
   + 1.1 r[18] + 6.4 r[19] + 8.3 r[20] + 6.9 r[21] + 0.2 r[22] + 6.4 r[23]
   + r[24] + 2.2 r[25] + 4.4 r[26] + 4.1 r[27] + 7.1 r[28] + 0.9 r[29]
   + 7.1 r[30] + 1.3 r[31] + 3.3 r[32] + 8.3 r[33] + 3 r[34] + 3.5 r[35]
   + 7 r[36] + 5 r[37] + 2.6 r[38] + 0.8 r[39] + 4.5 r[40] + 8.3 r[41]
   + 9.6 r[42] + 9.9 r[43] + 0.1 r[44] + 7.6 r[45] + 9.1 r[46] + 7.1 r[47]
   + 0.1 r[48] + 3.4 r[49] + 0.4 r[50] + 9.4 r[51] + 7.1 r[52] + 6.2 r[53]
   + 4.6 r[54] + 5.7 r[55] + 3.9 r[56] + 5.6 r[57] + 3 r[58] + 2.8 r[59]
   + 2.6 r[60] + 1.2 r[61] + 6.9 r[62] + 9.2 r[63] + 8.9 r[64] + 9.8 r[65]
   + 1.4 r[66] + 3.6 r[67] + 9.4 r[68] + 3.5 r[69] + 5.1 r[70] + 5.1 r[71]
   + 4.4 r[72] + 8.5 r[73] + 6.5 r[74] + 1.4 r[75] + 4.8 r[76] + 8.5 r[77]
   + 9 r[78] + 4.8 r[79] + 7.1 r[80] + 5.5 r[81] + 2.8 r[82] + 5.9 r[83]
   + 7.5 r[84] + 7.1 r[85] + 8.5 r[86] + 4.6 r[87] + 4.8 r[88] + 4.9 r[89]
   + 7.8 r[90] + 5.8 r[91] + 4.6 r[92] + 2.5 r[93] + 5.4 r[94] + 4.7 r[95]
   + 5.5 r[96] + 6.6 r[97] + 5.4 r[98] + 6.6 r[99] + 7.9 r[100] + 7 r[101]
   + 4.4 r[102] + 3 r[103] + 7.5 r[104] + 5.2 r[105] + 8.1 r[106]
   + 0.8 r[107] + 6 r[108] + 7.9 r[109] <= 529
 primal_lower: 1.313366001627711 x[0] + 1.193416755769125 x[1]
   + 2.335718427267512 x[2] + 2.025029007585124 x[3]
   + 0.3980958435443359 x[4] + 1.453194060410537 x[5]
   + 0.7084957808856882 x[6] + 3.573363992709731 x[7]
   + 0.6183408560797387 x[8] + 4.435301931342249 x[9]
   + 3.219261076976952 x[10] + 2.428049575042245 x[11]
   + 1.059613515017155 x[12] + 1.401001757743697 x[13]
   + 2.812754323282467 x[14] + 0.6796084358537771 x[15]
   + 4.446004339016649 x[16] + 3.355110359964 x[17]
   + 0.6389990051707067 x[18] + 0.3101159219074814 x[19]
   + 2.028833766908384 x[20] + 3.285362103098705 x[21]
   + 3.993746422933594 x[22] + 3.804984689154299 x[23]
   + 2.491128234707719 x[24] + 3.815054709010584 x[25]
   + 0.4047921929243165 x[26] + 1.450850290744653 x[27]
   + 1.619451325888714 x[28] + 4.703431869086478 x[29]
   + 4.819116945459634 x[30] + 2.863543094319888 x[31]
   + 1.877510029609669 x[32] + 3.757120010596097 x[33]
   + 3.548407914455902 x[34] + 2.033556494904215 x[35]
   + 4.556781948765207 x[36] + 0.1304794676925963 x[37]
   + 0.5601509601274693 x[38] + 4.860414801703723 x[39]
   + 3.512779702737154 x[40] + 2.826584074608507 x[41]
   + 0.8963801420761757 x[42] + 3.711045924660869 x[43]
   + 1.091974815025096 x[44] + 1.807294465905186 x[45]
   + 0.8217970780864321 x[46] + 4.150436658242589 x[47]
   + 4.546103901489923 x[48] + 4.195160883362766 x[49]
   + 3.934674424230154 x[50] + 1.225553862637179 x[51]
   + 2.909854814339306 x[52] + 0.1407385455106623 x[53]
   + 0.8678006574432637 x[54] + 4.646858275651502 x[55]
   + 3.563296911129057 x[56] + 0.1865757877466493 x[57]
   + 1.143128596922708 x[58] + 1.164317253423053 x[59]
   + 4.103874116021921 x[60] + 1.78581609080279 x[61]
   + 1.741636705938044 x[62] + 4.09365089866995 x[63]
   + 0.2132792703697005 x[64] + 1.729180590855633 x[65]
   + 1.409194649910896 x[66] + 2.075674211635565 x[67]
   + 3.731480872421695 x[68] + 4.325700780032817 x[69]
   + 2.797172643625279 x[70] + 0.1047345247992287 x[71]
   + 1.184572907748599 x[72] + 0.9359287448872663 x[73]
   + 1.600848428420246 x[74] + 0.1899039673695878 x[75]
   + 3.138538725889644 x[76] + 4.980648222740051 x[77]
   + 0.0855345443022437 x[78] + 4.932348005113679 x[79]
   + 2.519631084694081 x[80] + 4.117317691599471 x[81]
   + 1.493320419269365 x[82] + 2.781714254480158 x[83]
   + 4.997730299542814 x[84] + 2.39864699680996 x[85]
   + 1.846155858115708 x[86] + 2.981204205038895 x[87]
   + 3.878987321159908 x[88] + 3.126070526620078 x[89]
   + 0.6623234448759786 x[90] + 3.282399917806476 x[91]
   + 3.676793181680199 x[92] + 4.693075584119869 x[93]
   + 2.191442857561656 x[94] + 4.238179139635724 x[95]
   + 1.073857554737772 x[96] + 1.633127294127402 x[97]
   + 4.526589193394672 x[98] + 1.731983788118238 x[99]
   + 2.163265671737784 x[100] + 3.387203338317822 x[101]
   + 0.9197466836434335 x[102] + 1.884014973931846 x[103]
   + 0.4910738177723742 x[104] + 1.108660091817633 x[105]
   + 4.96388835207133 x[106] + 4.655960256498617 x[107]
   + 2.933743761064004 x[108] + 2.487774447827878 x[109] + 4 u[0] + 9 u[1]
   + 91 u[2] + 32 u[3] + 9 u[4] + 54 u[5] + 98 u[6] + 36 u[7] + 82 u[8]
   + 31 u[9] + 84 u[10] + 100 u[11] + u[12] + 89 u[13] + 25 u[14]
   + 33 u[15] + 50 u[16] + 93 u[17] + 30 u[18] + 79 u[19] + 58 u[20]
   + 44 u[21] + 25 u[22] + 87 u[23] + 53 u[24] + 81 u[25] + 3 u[26]
   + 92 u[27] + 74 u[28] + 56 u[29] + 22 u[30] + 16 u[31] + 84 u[32]
   + 42 u[33] + 17 u[34] + 98 u[35] + 85 u[36] + 93 u[37] + 37 u[38]
   + 15 u[39] + 52 u[40] + 42 u[41] + 55 u[42] + 90 u[43] + 8 u[44]
   + 83 u[45] + 66 u[46] + 94 u[47] + 64 u[48] + 33 u[49] + 31 u[50]
   + 85 u[51] + 94 u[52] + 45 u[53] + 73 u[54] + 36 u[55] + 94 u[56]
   + 43 u[57] + 57 u[58] + 63 u[59] + 53 u[60] + 11 u[61] + 16 u[62]
   + 63 u[63] + 20 u[64] + 53 u[65] + 69 u[66] + 47 u[67] + 25 u[68]
   + 22 u[69] + 30 u[70] + 94 u[71] + 71 u[72] + 60 u[73] + 48 u[74]
   + 45 u[75] + 27 u[76] + 84 u[77] + 53 u[78] + 87 u[79] + 74 u[80]
   + 94 u[81] + 23 u[82] + 66 u[83] + 54 u[84] + 58 u[85] + 68 u[86]
   + 61 u[87] + 7 u[88] + 4 u[89] + 65 u[90] + 69 u[91] + 93 u[92]
   + 80 u[93] + 9 u[94] + 58 u[95] + 18 u[96] + 9 u[97] + 37 u[98]
   + 73 u[99] + 54 u[100] + 85 u[101] + 79 u[102] + u[103] + 46 u[104]
   + 79 u[105] + 80 u[106] + 7 u[107] + 63 u[108] + 78 u[109] <= 38959
 mccormick1[0]: - u[0] + r[0] <= 0
 mccormick1[1]: - u[1] + r[1] <= 0
 mccormick1[2]: - u[2] + r[2] <= 0
 mccormick1[3]: - u[3] + r[3] <= 0
 mccormick1[4]: - u[4] + r[4] <= 0
 mccormick1[5]: - u[5] + r[5] <= 0
 mccormick1[6]: - u[6] + r[6] <= 0
 mccormick1[7]: - u[7] + r[7] <= 0
 mccormick1[8]: - u[8] + r[8] <= 0
 mccormick1[9]: - u[9] + r[9] <= 0
 mccormick1[10]: - u[10] + r[10] <= 0
 mccormick1[11]: - u[11] + r[11] <= 0
 mccormick1[12]: - u[12] + r[12] <= 0
 mccormick1[13]: - u[13] + r[13] <= 0
 mccormick1[14]: - u[14] + r[14] <= 0
 mccormick1[15]: - u[15] + r[15] <= 0
 mccormick1[16]: - u[16] + r[16] <= 0
 mccormick1[17]: - u[17] + r[17] <= 0
 mccormick1[18]: - u[18] + r[18] <= 0
 mccormick1[19]: - u[19] + r[19] <= 0
 mccormick1[20]: - u[20] + r[20] <= 0
 mccormick1[21]: - u[21] + r[21] <= 0
 mccormick1[22]: - u[22] + r[22] <= 0
 mccormick1[23]: - u[23] + r[23] <= 0
 mccormick1[24]: - u[24] + r[24] <= 0
 mccormick1[25]: - u[25] + r[25] <= 0
 mccormick1[26]: - u[26] + r[26] <= 0
 mccormick1[27]: - u[27] + r[27] <= 0
 mccormick1[28]: - u[28] + r[28] <= 0
 mccormick1[29]: - u[29] + r[29] <= 0
 mccormick1[30]: - u[30] + r[30] <= 0
 mccormick1[31]: - u[31] + r[31] <= 0
 mccormick1[32]: - u[32] + r[32] <= 0
 mccormick1[33]: - u[33] + r[33] <= 0
 mccormick1[34]: - u[34] + r[34] <= 0
 mccormick1[35]: - u[35] + r[35] <= 0
 mccormick1[36]: - u[36] + r[36] <= 0
 mccormick1[37]: - u[37] + r[37] <= 0
 mccormick1[38]: - u[38] + r[38] <= 0
 mccormick1[39]: - u[39] + r[39] <= 0
 mccormick1[40]: - u[40] + r[40] <= 0
 mccormick1[41]: - u[41] + r[41] <= 0
 mccormick1[42]: - u[42] + r[42] <= 0
 mccormick1[43]: - u[43] + r[43] <= 0
 mccormick1[44]: - u[44] + r[44] <= 0
 mccormick1[45]: - u[45] + r[45] <= 0
 mccormick1[46]: - u[46] + r[46] <= 0
 mccormick1[47]: - u[47] + r[47] <= 0
 mccormick1[48]: - u[48] + r[48] <= 0
 mccormick1[49]: - u[49] + r[49] <= 0
 mccormick1[50]: - u[50] + r[50] <= 0
 mccormick1[51]: - u[51] + r[51] <= 0
 mccormick1[52]: - u[52] + r[52] <= 0
 mccormick1[53]: - u[53] + r[53] <= 0
 mccormick1[54]: - u[54] + r[54] <= 0
 mccormick1[55]: - u[55] + r[55] <= 0
 mccormick1[56]: - u[56] + r[56] <= 0
 mccormick1[57]: - u[57] + r[57] <= 0
 mccormick1[58]: - u[58] + r[58] <= 0
 mccormick1[59]: - u[59] + r[59] <= 0
 mccormick1[60]: - u[60] + r[60] <= 0
 mccormick1[61]: - u[61] + r[61] <= 0
 mccormick1[62]: - u[62] + r[62] <= 0
 mccormick1[63]: - u[63] + r[63] <= 0
 mccormick1[64]: - u[64] + r[64] <= 0
 mccormick1[65]: - u[65] + r[65] <= 0
 mccormick1[66]: - u[66] + r[66] <= 0
 mccormick1[67]: - u[67] + r[67] <= 0
 mccormick1[68]: - u[68] + r[68] <= 0
 mccormick1[69]: - u[69] + r[69] <= 0
 mccormick1[70]: - u[70] + r[70] <= 0
 mccormick1[71]: - u[71] + r[71] <= 0
 mccormick1[72]: - u[72] + r[72] <= 0
 mccormick1[73]: - u[73] + r[73] <= 0
 mccormick1[74]: - u[74] + r[74] <= 0
 mccormick1[75]: - u[75] + r[75] <= 0
 mccormick1[76]: - u[76] + r[76] <= 0
 mccormick1[77]: - u[77] + r[77] <= 0
 mccormick1[78]: - u[78] + r[78] <= 0
 mccormick1[79]: - u[79] + r[79] <= 0
 mccormick1[80]: - u[80] + r[80] <= 0
 mccormick1[81]: - u[81] + r[81] <= 0
 mccormick1[82]: - u[82] + r[82] <= 0
 mccormick1[83]: - u[83] + r[83] <= 0
 mccormick1[84]: - u[84] + r[84] <= 0
 mccormick1[85]: - u[85] + r[85] <= 0
 mccormick1[86]: - u[86] + r[86] <= 0
 mccormick1[87]: - u[87] + r[87] <= 0
 mccormick1[88]: - u[88] + r[88] <= 0
 mccormick1[89]: - u[89] + r[89] <= 0
 mccormick1[90]: - u[90] + r[90] <= 0
 mccormick1[91]: - u[91] + r[91] <= 0
 mccormick1[92]: - u[92] + r[92] <= 0
 mccormick1[93]: - u[93] + r[93] <= 0
 mccormick1[94]: - u[94] + r[94] <= 0
 mccormick1[95]: - u[95] + r[95] <= 0
 mccormick1[96]: - u[96] + r[96] <= 0
 mccormick1[97]: - u[97] + r[97] <= 0
 mccormick1[98]: - u[98] + r[98] <= 0
 mccormick1[99]: - u[99] + r[99] <= 0
 mccormick1[100]: - u[100] + r[100] <= 0
 mccormick1[101]: - u[101] + r[101] <= 0
 mccormick1[102]: - u[102] + r[102] <= 0
 mccormick1[103]: - u[103] + r[103] <= 0
 mccormick1[104]: - u[104] + r[104] <= 0
 mccormick1[105]: - u[105] + r[105] <= 0
 mccormick1[106]: - u[106] + r[106] <= 0
 mccormick1[107]: - u[107] + r[107] <= 0
 mccormick1[108]: - u[108] + r[108] <= 0
 mccormick1[109]: - u[109] + r[109] <= 0
 mccormick2[0]: - x[0] + r[0] <= 0
 mccormick2[1]: - x[1] + r[1] <= 0
 mccormick2[2]: - x[2] + r[2] <= 0
 mccormick2[3]: - x[3] + r[3] <= 0
 mccormick2[4]: - x[4] + r[4] <= 0
 mccormick2[5]: - x[5] + r[5] <= 0
 mccormick2[6]: - x[6] + r[6] <= 0
 mccormick2[7]: - x[7] + r[7] <= 0
 mccormick2[8]: - x[8] + r[8] <= 0
 mccormick2[9]: - x[9] + r[9] <= 0
 mccormick2[10]: - x[10] + r[10] <= 0
 mccormick2[11]: - x[11] + r[11] <= 0
 mccormick2[12]: - x[12] + r[12] <= 0
 mccormick2[13]: - x[13] + r[13] <= 0
 mccormick2[14]: - x[14] + r[14] <= 0
 mccormick2[15]: - x[15] + r[15] <= 0
 mccormick2[16]: - x[16] + r[16] <= 0
 mccormick2[17]: - x[17] + r[17] <= 0
 mccormick2[18]: - x[18] + r[18] <= 0
 mccormick2[19]: - x[19] + r[19] <= 0
 mccormick2[20]: - x[20] + r[20] <= 0
 mccormick2[21]: - x[21] + r[21] <= 0
 mccormick2[22]: - x[22] + r[22] <= 0
 mccormick2[23]: - x[23] + r[23] <= 0
 mccormick2[24]: - x[24] + r[24] <= 0
 mccormick2[25]: - x[25] + r[25] <= 0
 mccormick2[26]: - x[26] + r[26] <= 0
 mccormick2[27]: - x[27] + r[27] <= 0
 mccormick2[28]: - x[28] + r[28] <= 0
 mccormick2[29]: - x[29] + r[29] <= 0
 mccormick2[30]: - x[30] + r[30] <= 0
 mccormick2[31]: - x[31] + r[31] <= 0
 mccormick2[32]: - x[32] + r[32] <= 0
 mccormick2[33]: - x[33] + r[33] <= 0
 mccormick2[34]: - x[34] + r[34] <= 0
 mccormick2[35]: - x[35] + r[35] <= 0
 mccormick2[36]: - x[36] + r[36] <= 0
 mccormick2[37]: - x[37] + r[37] <= 0
 mccormick2[38]: - x[38] + r[38] <= 0
 mccormick2[39]: - x[39] + r[39] <= 0
 mccormick2[40]: - x[40] + r[40] <= 0
 mccormick2[41]: - x[41] + r[41] <= 0
 mccormick2[42]: - x[42] + r[42] <= 0
 mccormick2[43]: - x[43] + r[43] <= 0
 mccormick2[44]: - x[44] + r[44] <= 0
 mccormick2[45]: - x[45] + r[45] <= 0
 mccormick2[46]: - x[46] + r[46] <= 0
 mccormick2[47]: - x[47] + r[47] <= 0
 mccormick2[48]: - x[48] + r[48] <= 0
 mccormick2[49]: - x[49] + r[49] <= 0
 mccormick2[50]: - x[50] + r[50] <= 0
 mccormick2[51]: - x[51] + r[51] <= 0
 mccormick2[52]: - x[52] + r[52] <= 0
 mccormick2[53]: - x[53] + r[53] <= 0
 mccormick2[54]: - x[54] + r[54] <= 0
 mccormick2[55]: - x[55] + r[55] <= 0
 mccormick2[56]: - x[56] + r[56] <= 0
 mccormick2[57]: - x[57] + r[57] <= 0
 mccormick2[58]: - x[58] + r[58] <= 0
 mccormick2[59]: - x[59] + r[59] <= 0
 mccormick2[60]: - x[60] + r[60] <= 0
 mccormick2[61]: - x[61] + r[61] <= 0
 mccormick2[62]: - x[62] + r[62] <= 0
 mccormick2[63]: - x[63] + r[63] <= 0
 mccormick2[64]: - x[64] + r[64] <= 0
 mccormick2[65]: - x[65] + r[65] <= 0
 mccormick2[66]: - x[66] + r[66] <= 0
 mccormick2[67]: - x[67] + r[67] <= 0
 mccormick2[68]: - x[68] + r[68] <= 0
 mccormick2[69]: - x[69] + r[69] <= 0
 mccormick2[70]: - x[70] + r[70] <= 0
 mccormick2[71]: - x[71] + r[71] <= 0
 mccormick2[72]: - x[72] + r[72] <= 0
 mccormick2[73]: - x[73] + r[73] <= 0
 mccormick2[74]: - x[74] + r[74] <= 0
 mccormick2[75]: - x[75] + r[75] <= 0
 mccormick2[76]: - x[76] + r[76] <= 0
 mccormick2[77]: - x[77] + r[77] <= 0
 mccormick2[78]: - x[78] + r[78] <= 0
 mccormick2[79]: - x[79] + r[79] <= 0
 mccormick2[80]: - x[80] + r[80] <= 0
 mccormick2[81]: - x[81] + r[81] <= 0
 mccormick2[82]: - x[82] + r[82] <= 0
 mccormick2[83]: - x[83] + r[83] <= 0
 mccormick2[84]: - x[84] + r[84] <= 0
 mccormick2[85]: - x[85] + r[85] <= 0
 mccormick2[86]: - x[86] + r[86] <= 0
 mccormick2[87]: - x[87] + r[87] <= 0
 mccormick2[88]: - x[88] + r[88] <= 0
 mccormick2[89]: - x[89] + r[89] <= 0
 mccormick2[90]: - x[90] + r[90] <= 0
 mccormick2[91]: - x[91] + r[91] <= 0
 mccormick2[92]: - x[92] + r[92] <= 0
 mccormick2[93]: - x[93] + r[93] <= 0
 mccormick2[94]: - x[94] + r[94] <= 0
 mccormick2[95]: - x[95] + r[95] <= 0
 mccormick2[96]: - x[96] + r[96] <= 0
 mccormick2[97]: - x[97] + r[97] <= 0
 mccormick2[98]: - x[98] + r[98] <= 0
 mccormick2[99]: - x[99] + r[99] <= 0
 mccormick2[100]: - x[100] + r[100] <= 0
 mccormick2[101]: - x[101] + r[101] <= 0
 mccormick2[102]: - x[102] + r[102] <= 0
 mccormick2[103]: - x[103] + r[103] <= 0
 mccormick2[104]: - x[104] + r[104] <= 0
 mccormick2[105]: - x[105] + r[105] <= 0
 mccormick2[106]: - x[106] + r[106] <= 0
 mccormick2[107]: - x[107] + r[107] <= 0
 mccormick2[108]: - x[108] + r[108] <= 0
 mccormick2[109]: - x[109] + r[109] <= 0
 mccormick3[0]: x[0] + u[0] - r[0] <= 1
 mccormick3[1]: x[1] + u[1] - r[1] <= 1
 mccormick3[2]: x[2] + u[2] - r[2] <= 1
 mccormick3[3]: x[3] + u[3] - r[3] <= 1
 mccormick3[4]: x[4] + u[4] - r[4] <= 1
 mccormick3[5]: x[5] + u[5] - r[5] <= 1
 mccormick3[6]: x[6] + u[6] - r[6] <= 1
 mccormick3[7]: x[7] + u[7] - r[7] <= 1
 mccormick3[8]: x[8] + u[8] - r[8] <= 1
 mccormick3[9]: x[9] + u[9] - r[9] <= 1
 mccormick3[10]: x[10] + u[10] - r[10] <= 1
 mccormick3[11]: x[11] + u[11] - r[11] <= 1
 mccormick3[12]: x[12] + u[12] - r[12] <= 1
 mccormick3[13]: x[13] + u[13] - r[13] <= 1
 mccormick3[14]: x[14] + u[14] - r[14] <= 1
 mccormick3[15]: x[15] + u[15] - r[15] <= 1
 mccormick3[16]: x[16] + u[16] - r[16] <= 1
 mccormick3[17]: x[17] + u[17] - r[17] <= 1
 mccormick3[18]: x[18] + u[18] - r[18] <= 1
 mccormick3[19]: x[19] + u[19] - r[19] <= 1
 mccormick3[20]: x[20] + u[20] - r[20] <= 1
 mccormick3[21]: x[21] + u[21] - r[21] <= 1
 mccormick3[22]: x[22] + u[22] - r[22] <= 1
 mccormick3[23]: x[23] + u[23] - r[23] <= 1
 mccormick3[24]: x[24] + u[24] - r[24] <= 1
 mccormick3[25]: x[25] + u[25] - r[25] <= 1
 mccormick3[26]: x[26] + u[26] - r[26] <= 1
 mccormick3[27]: x[27] + u[27] - r[27] <= 1
 mccormick3[28]: x[28] + u[28] - r[28] <= 1
 mccormick3[29]: x[29] + u[29] - r[29] <= 1
 mccormick3[30]: x[30] + u[30] - r[30] <= 1
 mccormick3[31]: x[31] + u[31] - r[31] <= 1
 mccormick3[32]: x[32] + u[32] - r[32] <= 1
 mccormick3[33]: x[33] + u[33] - r[33] <= 1
 mccormick3[34]: x[34] + u[34] - r[34] <= 1
 mccormick3[35]: x[35] + u[35] - r[35] <= 1
 mccormick3[36]: x[36] + u[36] - r[36] <= 1
 mccormick3[37]: x[37] + u[37] - r[37] <= 1
 mccormick3[38]: x[38] + u[38] - r[38] <= 1
 mccormick3[39]: x[39] + u[39] - r[39] <= 1
 mccormick3[40]: x[40] + u[40] - r[40] <= 1
 mccormick3[41]: x[41] + u[41] - r[41] <= 1
 mccormick3[42]: x[42] + u[42] - r[42] <= 1
 mccormick3[43]: x[43] + u[43] - r[43] <= 1
 mccormick3[44]: x[44] + u[44] - r[44] <= 1
 mccormick3[45]: x[45] + u[45] - r[45] <= 1
 mccormick3[46]: x[46] + u[46] - r[46] <= 1
 mccormick3[47]: x[47] + u[47] - r[47] <= 1
 mccormick3[48]: x[48] + u[48] - r[48] <= 1
 mccormick3[49]: x[49] + u[49] - r[49] <= 1
 mccormick3[50]: x[50] + u[50] - r[50] <= 1
 mccormick3[51]: x[51] + u[51] - r[51] <= 1
 mccormick3[52]: x[52] + u[52] - r[52] <= 1
 mccormick3[53]: x[53] + u[53] - r[53] <= 1
 mccormick3[54]: x[54] + u[54] - r[54] <= 1
 mccormick3[55]: x[55] + u[55] - r[55] <= 1
 mccormick3[56]: x[56] + u[56] - r[56] <= 1
 mccormick3[57]: x[57] + u[57] - r[57] <= 1
 mccormick3[58]: x[58] + u[58] - r[58] <= 1
 mccormick3[59]: x[59] + u[59] - r[59] <= 1
 mccormick3[60]: x[60] + u[60] - r[60] <= 1
 mccormick3[61]: x[61] + u[61] - r[61] <= 1
 mccormick3[62]: x[62] + u[62] - r[62] <= 1
 mccormick3[63]: x[63] + u[63] - r[63] <= 1
 mccormick3[64]: x[64] + u[64] - r[64] <= 1
 mccormick3[65]: x[65] + u[65] - r[65] <= 1
 mccormick3[66]: x[66] + u[66] - r[66] <= 1
 mccormick3[67]: x[67] + u[67] - r[67] <= 1
 mccormick3[68]: x[68] + u[68] - r[68] <= 1
 mccormick3[69]: x[69] + u[69] - r[69] <= 1
 mccormick3[70]: x[70] + u[70] - r[70] <= 1
 mccormick3[71]: x[71] + u[71] - r[71] <= 1
 mccormick3[72]: x[72] + u[72] - r[72] <= 1
 mccormick3[73]: x[73] + u[73] - r[73] <= 1
 mccormick3[74]: x[74] + u[74] - r[74] <= 1
 mccormick3[75]: x[75] + u[75] - r[75] <= 1
 mccormick3[76]: x[76] + u[76] - r[76] <= 1
 mccormick3[77]: x[77] + u[77] - r[77] <= 1
 mccormick3[78]: x[78] + u[78] - r[78] <= 1
 mccormick3[79]: x[79] + u[79] - r[79] <= 1
 mccormick3[80]: x[80] + u[80] - r[80] <= 1
 mccormick3[81]: x[81] + u[81] - r[81] <= 1
 mccormick3[82]: x[82] + u[82] - r[82] <= 1
 mccormick3[83]: x[83] + u[83] - r[83] <= 1
 mccormick3[84]: x[84] + u[84] - r[84] <= 1
 mccormick3[85]: x[85] + u[85] - r[85] <= 1
 mccormick3[86]: x[86] + u[86] - r[86] <= 1
 mccormick3[87]: x[87] + u[87] - r[87] <= 1
 mccormick3[88]: x[88] + u[88] - r[88] <= 1
 mccormick3[89]: x[89] + u[89] - r[89] <= 1
 mccormick3[90]: x[90] + u[90] - r[90] <= 1
 mccormick3[91]: x[91] + u[91] - r[91] <= 1
 mccormick3[92]: x[92] + u[92] - r[92] <= 1
 mccormick3[93]: x[93] + u[93] - r[93] <= 1
 mccormick3[94]: x[94] + u[94] - r[94] <= 1
 mccormick3[95]: x[95] + u[95] - r[95] <= 1
 mccormick3[96]: x[96] + u[96] - r[96] <= 1
 mccormick3[97]: x[97] + u[97] - r[97] <= 1
 mccormick3[98]: x[98] + u[98] - r[98] <= 1
 mccormick3[99]: x[99] + u[99] - r[99] <= 1
 mccormick3[100]: x[100] + u[100] - r[100] <= 1
 mccormick3[101]: x[101] + u[101] - r[101] <= 1
 mccormick3[102]: x[102] + u[102] - r[102] <= 1
 mccormick3[103]: x[103] + u[103] - r[103] <= 1
 mccormick3[104]: x[104] + u[104] - r[104] <= 1
 mccormick3[105]: x[105] + u[105] - r[105] <= 1
 mccormick3[106]: x[106] + u[106] - r[106] <= 1
 mccormick3[107]: x[107] + u[107] - r[107] <= 1
 mccormick3[108]: x[108] + u[108] - r[108] <= 1
 mccormick3[109]: x[109] + u[109] - r[109] <= 1
Bounds
Binaries
 x[0] x[1] x[2] x[3] x[4] x[5] x[6] x[7] x[8] x[9] x[10] x[11] x[12] x[13]
 x[14] x[15] x[16] x[17] x[18] x[19] x[20] x[21] x[22] x[23] x[24] x[25]
 x[26] x[27] x[28] x[29] x[30] x[31] x[32] x[33] x[34] x[35] x[36] x[37]
 x[38] x[39] x[40] x[41] x[42] x[43] x[44] x[45] x[46] x[47] x[48] x[49]
 x[50] x[51] x[52] x[53] x[54] x[55] x[56] x[57] x[58] x[59] x[60] x[61]
 x[62] x[63] x[64] x[65] x[66] x[67] x[68] x[69] x[70] x[71] x[72] x[73]
 x[74] x[75] x[76] x[77] x[78] x[79] x[80] x[81] x[82] x[83] x[84] x[85]
 x[86] x[87] x[88] x[89] x[90] x[91] x[92] x[93] x[94] x[95] x[96] x[97]
 x[98] x[99] x[100] x[101] x[102] x[103] x[104] x[105] x[106] x[107] x[108]
 x[109] u[0] u[1] u[2] u[3] u[4] u[5] u[6] u[7] u[8] u[9] u[10] u[11] u[12]
 u[13] u[14] u[15] u[16] u[17] u[18] u[19] u[20] u[21] u[22] u[23] u[24]
 u[25] u[26] u[27] u[28] u[29] u[30] u[31] u[32] u[33] u[34] u[35] u[36]
 u[37] u[38] u[39] u[40] u[41] u[42] u[43] u[44] u[45] u[46] u[47] u[48]
 u[49] u[50] u[51] u[52] u[53] u[54] u[55] u[56] u[57] u[58] u[59] u[60]
 u[61] u[62] u[63] u[64] u[65] u[66] u[67] u[68] u[69] u[70] u[71] u[72]
 u[73] u[74] u[75] u[76] u[77] u[78] u[79] u[80] u[81] u[82] u[83] u[84]
 u[85] u[86] u[87] u[88] u[89] u[90] u[91] u[92] u[93] u[94] u[95] u[96]
 u[97] u[98] u[99] u[100] u[101] u[102] u[103] u[104] u[105] u[106] u[107]
 u[108] u[109] r[0] r[1] r[2] r[3] r[4] r[5] r[6] r[7] r[8] r[9] r[10]
 r[11] r[12] r[13] r[14] r[15] r[16] r[17] r[18] r[19] r[20] r[21] r[22]
 r[23] r[24] r[25] r[26] r[27] r[28] r[29] r[30] r[31] r[32] r[33] r[34]
 r[35] r[36] r[37] r[38] r[39] r[40] r[41] r[42] r[43] r[44] r[45] r[46]
 r[47] r[48] r[49] r[50] r[51] r[52] r[53] r[54] r[55] r[56] r[57] r[58]
 r[59] r[60] r[61] r[62] r[63] r[64] r[65] r[66] r[67] r[68] r[69] r[70]
 r[71] r[72] r[73] r[74] r[75] r[76] r[77] r[78] r[79] r[80] r[81] r[82]
 r[83] r[84] r[85] r[86] r[87] r[88] r[89] r[90] r[91] r[92] r[93] r[94]
 r[95] r[96] r[97] r[98] r[99] r[100] r[101] r[102] r[103] r[104] r[105]
 r[106] r[107] r[108] r[109]
End
