instances/knapsack/discrete_knapsack_uncertainty/knapsack_110_7.kp
94697
110
529

57 5.7 90
78 7.8 70
96 9.6 4
13 1.3 40
2 0.2 13
87 8.7 49
3 0.3 5
69 6.9 31
47 4.7 46
40 4.0 78
29 2.9 99
13 1.3 19
58 5.8 63
42 4.2 90
30 3.0 59
34 3.4 8
7 0.7 62
2 0.2 42
11 1.1 50
64 6.4 85
83 8.3 57
69 6.9 15
2 0.2 92
64 6.4 80
10 1.0 65
22 2.2 90
44 4.4 28
41 4.1 67
71 7.1 54
9 0.9 60
71 7.1 89
13 1.3 36
33 3.3 64
83 8.3 91
30 3.0 27
35 3.5 5
70 7.0 49
50 5.0 71
26 2.6 26
8 0.8 75
45 4.5 44
83 8.3 9
96 9.6 61
99 9.9 27
1 0.1 62
76 7.6 51
91 9.1 60
71 7.1 40
1 0.1 60
34 3.4 29
4 0.4 47
94 9.4 86
71 7.1 99
62 6.2 61
46 4.6 24
57 5.7 14
39 3.9 6
56 5.6 12
30 3.0 20
28 2.8 79
26 2.6 40
12 1.2 14
69 6.9 49
92 9.2 33
89 8.9 42
98 9.8 5
14 1.4 53
36 3.6 49
94 9.4 28
35 3.5 93
51 5.1 1
51 5.1 55
44 4.4 13
85 8.5 5
65 6.5 26
14 1.4 18
48 4.8 30
85 8.5 77
90 9.0 48
48 4.8 83
71 7.1 31
55 5.5 10
28 2.8 29
59 5.9 34
75 7.5 89
71 7.1 36
85 8.5 26
46 4.6 3
48 4.8 28
49 4.9 90
78 7.8 98
58 5.8 65
46 4.6 77
25 2.5 32
54 5.4 28
47 4.7 98
55 5.5 57
66 6.6 92
54 5.4 4
66 6.6 32
79 7.9 56
70 7.0 93
44 4.4 82
30 3.0 41
75 7.5 43
52 5.2 55
81 8.1 26
8 0.8 76
60 6.0 42
79 7.9 12

38959
560

[1.3133660016277109 1.193416755769125 2.335718427267512 2.025029007585124 0.3980958435443359 1.453194060410537 0.7084957808856882 3.573363992709731 0.6183408560797387 4.435301931342249 3.219261076976952 2.428049575042245 1.0596135150171553 1.4010017577436973 2.8127543232824666 0.6796084358537771 4.446004339016649 3.3551103599639998 0.6389990051707067 0.3101159219074814 2.028833766908384 3.2853621030987052 3.993746422933594 3.804984689154299 2.4911282347077193 3.815054709010584 0.4047921929243165 1.4508502907446534 1.6194513258887135 4.703431869086478 4.819116945459634 2.863543094319888 1.8775100296096694 3.7571200105960973 3.548407914455902 2.0335564949042153 4.556781948765207 0.13047946769259633 0.5601509601274693 4.860414801703723 3.512779702737154 2.8265840746085074 0.8963801420761757 3.711045924660869 1.0919748150250956 1.8072944659051864 0.8217970780864321 4.150436658242589 4.546103901489923 4.1951608833627665 3.9346744242301543 1.2255538626371794 2.9098548143393064 0.1407385455106623 0.8678006574432637 4.646858275651502 3.563296911129057 0.1865757877466493 1.1431285969227076 1.1643172534230533 4.103874116021921 1.78581609080279 1.741636705938044 4.09365089866995 0.2132792703697005 1.7291805908556332 1.4091946499108963 2.075674211635565 3.7314808724216952 4.325700780032817 2.7971726436252786 0.1047345247992287 1.1845729077485991 0.9359287448872663 1.6008484284202456 0.1899039673695878 3.1385387258896444 4.980648222740051 0.08553454430224368 4.9323480051136785 2.5196310846940815 4.117317691599471 1.4933204192693652 2.7817142544801583 4.997730299542814 2.3986469968099597 1.8461558581157083 2.9812042050388947 3.878987321159908 3.126070526620078 0.6623234448759786 3.2823999178064756 3.676793181680199 4.693075584119869 2.1914428575616562 4.238179139635724 1.0738575547377724 1.6331272941274022 4.526589193394672 1.7319837881182383 2.1632656717377836 3.3872033383178217 0.9197466836434335 1.884014973931846 0.4910738177723742 1.108660091817633 4.96388835207133 4.655960256498617 2.9337437610640036 2.4877744478278783]

[4 9 91 32 9 54 98 36 82 31 84 100 1 89 25 33 50 93 30 79 58 44 25 87 53 81 3 92 74 56 22 16 84 42 17 98 85 93 37 15 52 42 55 90 8 83 66 94 64 33 31 85 94 45 73 36 94 43 57 63 53 11 16 63 20 53 69 47 25 22 30 94 71 60 48 45 27 84 53 87 74 94 23 66 54 58 68 61 7 4 65 69 93 80 9 58 18 9 37 73 54 85 79 1 46 79 80 7 63 78]
